c nombre: 24
c densidad: 0.3
p edges 100 1459
e 1 5
e 1 8
e 1 17
e 1 21
e 1 26
e 1 31
e 1 34
e 1 39
e 1 40
e 1 41
e 1 46
e 1 53
e 1 54
e 1 63
e 1 64
e 1 65
e 1 67
e 1 70
e 1 77
e 1 88
e 1 91
e 1 92
e 1 95
e 1 97
e 1 98
e 2 4
e 2 5
e 2 7
e 2 10
e 2 18
e 2 19
e 2 20
e 2 25
e 2 27
e 2 28
e 2 36
e 2 37
e 2 41
e 2 45
e 2 49
e 2 54
e 2 55
e 2 62
e 2 63
e 2 65
e 2 73
e 2 74
e 2 76
e 2 80
e 2 89
e 3 16
e 3 18
e 3 25
e 3 27
e 3 29
e 3 30
e 3 35
e 3 37
e 3 38
e 3 43
e 3 46
e 3 47
e 3 48
e 3 49
e 3 53
e 3 56
e 3 59
e 3 63
e 3 67
e 3 73
e 3 74
e 3 77
e 3 80
e 3 81
e 3 83
e 3 89
e 3 92
e 3 96
e 4 5
e 4 11
e 4 13
e 4 14
e 4 15
e 4 24
e 4 26
e 4 27
e 4 29
e 4 33
e 4 42
e 4 47
e 4 62
e 4 67
e 4 71
e 4 72
e 4 73
e 4 77
e 4 82
e 4 91
e 4 96
e 4 97
e 5 14
e 5 15
e 5 19
e 5 21
e 5 25
e 5 26
e 5 28
e 5 30
e 5 32
e 5 36
e 5 37
e 5 40
e 5 48
e 5 58
e 5 66
e 5 67
e 5 70
e 5 75
e 5 76
e 5 79
e 5 82
e 5 84
e 5 86
e 5 89
e 5 99
e 6 8
e 6 9
e 6 12
e 6 16
e 6 17
e 6 20
e 6 22
e 6 23
e 6 31
e 6 32
e 6 36
e 6 37
e 6 38
e 6 39
e 6 40
e 6 43
e 6 45
e 6 46
e 6 50
e 6 52
e 6 56
e 6 58
e 6 63
e 6 84
e 6 85
e 6 86
e 6 87
e 6 88
e 6 94
e 6 95
e 6 96
e 7 8
e 7 13
e 7 20
e 7 31
e 7 35
e 7 42
e 7 45
e 7 47
e 7 51
e 7 52
e 7 59
e 7 60
e 7 67
e 7 68
e 7 71
e 7 72
e 7 77
e 7 78
e 7 87
e 7 90
e 7 92
e 7 94
e 8 11
e 8 15
e 8 17
e 8 24
e 8 25
e 8 30
e 8 34
e 8 39
e 8 42
e 8 44
e 8 45
e 8 48
e 8 51
e 8 53
e 8 55
e 8 57
e 8 59
e 8 60
e 8 65
e 8 68
e 8 69
e 8 73
e 8 75
e 8 76
e 8 77
e 8 78
e 8 80
e 8 88
e 8 91
e 9 17
e 9 21
e 9 24
e 9 29
e 9 30
e 9 37
e 9 38
e 9 43
e 9 48
e 9 49
e 9 52
e 9 55
e 9 56
e 9 57
e 9 60
e 9 64
e 9 65
e 9 68
e 9 70
e 9 73
e 9 77
e 9 78
e 9 79
e 9 80
e 9 89
e 9 90
e 9 91
e 9 94
e 9 95
e 10 12
e 10 14
e 10 20
e 10 21
e 10 26
e 10 29
e 10 32
e 10 35
e 10 37
e 10 44
e 10 46
e 10 49
e 10 54
e 10 55
e 10 62
e 10 64
e 10 70
e 10 72
e 10 77
e 10 79
e 10 81
e 10 87
e 10 89
e 10 92
e 10 93
e 10 98
e 10 100
e 11 16
e 11 20
e 11 21
e 11 26
e 11 29
e 11 32
e 11 35
e 11 37
e 11 38
e 11 39
e 11 41
e 11 50
e 11 60
e 11 70
e 11 75
e 11 96
e 11 100
e 12 16
e 12 23
e 12 28
e 12 30
e 12 36
e 12 40
e 12 43
e 12 44
e 12 47
e 12 48
e 12 53
e 12 55
e 12 56
e 12 59
e 12 60
e 12 66
e 12 67
e 12 72
e 12 75
e 12 79
e 12 97
e 12 99
e 13 14
e 13 16
e 13 18
e 13 19
e 13 25
e 13 29
e 13 30
e 13 31
e 13 33
e 13 35
e 13 37
e 13 39
e 13 40
e 13 41
e 13 46
e 13 47
e 13 48
e 13 50
e 13 53
e 13 54
e 13 56
e 13 58
e 13 60
e 13 67
e 13 73
e 13 74
e 13 76
e 13 77
e 13 81
e 13 82
e 13 84
e 13 85
e 13 87
e 13 88
e 13 91
e 13 98
e 14 16
e 14 17
e 14 19
e 14 20
e 14 21
e 14 23
e 14 26
e 14 28
e 14 37
e 14 40
e 14 48
e 14 51
e 14 52
e 14 53
e 14 54
e 14 56
e 14 59
e 14 60
e 14 62
e 14 66
e 14 67
e 14 69
e 14 71
e 14 72
e 14 73
e 14 76
e 14 78
e 14 79
e 14 80
e 14 82
e 14 83
e 14 84
e 14 92
e 14 100
e 15 23
e 15 24
e 15 27
e 15 28
e 15 36
e 15 40
e 15 41
e 15 42
e 15 43
e 15 46
e 15 47
e 15 48
e 15 50
e 15 54
e 15 60
e 15 61
e 15 62
e 15 67
e 15 69
e 15 71
e 15 73
e 15 74
e 15 75
e 15 77
e 15 79
e 15 87
e 15 89
e 15 90
e 15 93
e 15 94
e 16 19
e 16 24
e 16 25
e 16 27
e 16 35
e 16 36
e 16 42
e 16 44
e 16 48
e 16 51
e 16 61
e 16 64
e 16 65
e 16 66
e 16 67
e 16 72
e 16 75
e 16 77
e 16 79
e 16 82
e 16 83
e 16 87
e 16 89
e 16 92
e 16 93
e 16 95
e 16 96
e 16 99
e 17 24
e 17 27
e 17 30
e 17 32
e 17 33
e 17 43
e 17 44
e 17 45
e 17 47
e 17 50
e 17 51
e 17 52
e 17 54
e 17 62
e 17 68
e 17 69
e 17 78
e 17 79
e 17 80
e 17 81
e 17 84
e 17 89
e 17 90
e 17 93
e 17 97
e 18 21
e 18 24
e 18 27
e 18 35
e 18 41
e 18 47
e 18 54
e 18 63
e 18 64
e 18 68
e 18 75
e 18 81
e 18 83
e 18 84
e 18 85
e 18 88
e 18 93
e 18 94
e 18 100
e 19 22
e 19 25
e 19 26
e 19 29
e 19 30
e 19 36
e 19 37
e 19 39
e 19 44
e 19 45
e 19 49
e 19 56
e 19 64
e 19 71
e 19 72
e 19 73
e 19 74
e 19 79
e 19 86
e 19 88
e 19 94
e 19 95
e 19 96
e 20 21
e 20 22
e 20 23
e 20 30
e 20 32
e 20 33
e 20 38
e 20 43
e 20 46
e 20 48
e 20 51
e 20 52
e 20 56
e 20 59
e 20 62
e 20 66
e 20 67
e 20 71
e 20 72
e 20 73
e 20 81
e 20 82
e 20 86
e 20 87
e 20 94
e 20 95
e 21 39
e 21 40
e 21 44
e 21 46
e 21 51
e 21 56
e 21 65
e 21 69
e 21 71
e 21 73
e 21 76
e 21 77
e 21 78
e 21 81
e 21 83
e 21 88
e 21 90
e 21 91
e 21 93
e 21 94
e 21 95
e 21 96
e 21 99
e 22 24
e 22 25
e 22 27
e 22 30
e 22 31
e 22 33
e 22 36
e 22 37
e 22 40
e 22 50
e 22 54
e 22 58
e 22 73
e 22 74
e 22 75
e 22 80
e 22 83
e 22 84
e 22 86
e 22 89
e 22 93
e 22 94
e 23 24
e 23 25
e 23 27
e 23 28
e 23 30
e 23 33
e 23 35
e 23 43
e 23 51
e 23 57
e 23 58
e 23 59
e 23 60
e 23 76
e 23 88
e 23 91
e 23 92
e 23 99
e 23 100
e 24 25
e 24 30
e 24 32
e 24 34
e 24 42
e 24 45
e 24 51
e 24 53
e 24 57
e 24 59
e 24 62
e 24 63
e 24 64
e 24 68
e 24 69
e 24 70
e 24 72
e 24 73
e 24 76
e 24 80
e 24 82
e 24 86
e 24 92
e 24 95
e 24 96
e 24 99
e 25 26
e 25 27
e 25 29
e 25 37
e 25 43
e 25 45
e 25 47
e 25 48
e 25 55
e 25 56
e 25 58
e 25 59
e 25 65
e 25 68
e 25 71
e 25 75
e 25 77
e 25 78
e 25 79
e 25 81
e 25 85
e 25 92
e 25 100
e 26 31
e 26 37
e 26 38
e 26 44
e 26 46
e 26 48
e 26 51
e 26 52
e 26 63
e 26 64
e 26 66
e 26 68
e 26 69
e 26 73
e 26 80
e 26 81
e 26 83
e 26 86
e 26 91
e 26 96
e 26 99
e 27 28
e 27 29
e 27 34
e 27 35
e 27 36
e 27 37
e 27 38
e 27 39
e 27 41
e 27 42
e 27 52
e 27 57
e 27 60
e 27 61
e 27 65
e 27 66
e 27 68
e 27 69
e 27 71
e 27 78
e 27 80
e 27 81
e 27 86
e 27 87
e 27 92
e 27 98
e 27 99
e 28 29
e 28 30
e 28 31
e 28 33
e 28 34
e 28 35
e 28 37
e 28 38
e 28 43
e 28 45
e 28 46
e 28 48
e 28 50
e 28 51
e 28 56
e 28 57
e 28 60
e 28 62
e 28 64
e 28 65
e 28 66
e 28 69
e 28 73
e 28 77
e 28 78
e 28 80
e 28 81
e 28 95
e 28 96
e 28 97
e 29 30
e 29 32
e 29 39
e 29 41
e 29 44
e 29 48
e 29 51
e 29 57
e 29 62
e 29 64
e 29 68
e 29 71
e 29 81
e 29 89
e 29 91
e 29 96
e 29 99
e 29 100
e 30 36
e 30 41
e 30 43
e 30 49
e 30 61
e 30 63
e 30 65
e 30 67
e 30 68
e 30 75
e 30 77
e 30 79
e 30 82
e 30 90
e 30 100
e 31 32
e 31 38
e 31 39
e 31 49
e 31 53
e 31 55
e 31 57
e 31 70
e 31 72
e 31 74
e 31 78
e 31 84
e 31 87
e 31 89
e 31 91
e 31 96
e 31 97
e 32 33
e 32 37
e 32 46
e 32 48
e 32 50
e 32 57
e 32 61
e 32 62
e 32 63
e 32 66
e 32 67
e 32 72
e 32 83
e 32 87
e 32 88
e 32 89
e 32 98
e 32 100
e 33 36
e 33 38
e 33 40
e 33 43
e 33 44
e 33 45
e 33 50
e 33 55
e 33 57
e 33 62
e 33 65
e 33 67
e 33 69
e 33 70
e 33 75
e 33 77
e 33 83
e 33 85
e 33 89
e 33 91
e 33 92
e 33 95
e 33 98
e 33 99
e 34 38
e 34 41
e 34 43
e 34 44
e 34 48
e 34 55
e 34 58
e 34 62
e 34 63
e 34 64
e 34 65
e 34 70
e 34 72
e 34 75
e 34 77
e 34 83
e 34 88
e 34 93
e 34 96
e 34 98
e 34 100
e 35 38
e 35 39
e 35 43
e 35 44
e 35 48
e 35 49
e 35 53
e 35 55
e 35 56
e 35 64
e 35 72
e 35 76
e 35 78
e 35 79
e 35 80
e 35 82
e 35 84
e 35 85
e 35 87
e 35 88
e 35 93
e 35 94
e 36 37
e 36 38
e 36 41
e 36 42
e 36 44
e 36 45
e 36 46
e 36 47
e 36 48
e 36 50
e 36 51
e 36 58
e 36 60
e 36 64
e 36 66
e 36 68
e 36 69
e 36 73
e 36 76
e 36 77
e 36 86
e 36 87
e 36 90
e 36 95
e 36 96
e 36 98
e 36 99
e 37 39
e 37 42
e 37 44
e 37 45
e 37 52
e 37 61
e 37 62
e 37 63
e 37 64
e 37 66
e 37 71
e 37 83
e 37 84
e 37 89
e 37 90
e 37 91
e 37 92
e 37 94
e 37 96
e 37 100
e 38 41
e 38 44
e 38 45
e 38 46
e 38 49
e 38 50
e 38 56
e 38 57
e 38 58
e 38 66
e 38 71
e 38 76
e 38 78
e 38 80
e 38 81
e 38 85
e 38 93
e 39 47
e 39 48
e 39 55
e 39 56
e 39 60
e 39 63
e 39 65
e 39 66
e 39 70
e 39 74
e 39 75
e 39 89
e 39 90
e 39 95
e 39 96
e 40 42
e 40 43
e 40 44
e 40 48
e 40 54
e 40 55
e 40 63
e 40 74
e 40 79
e 40 81
e 40 85
e 40 87
e 40 90
e 40 94
e 41 44
e 41 47
e 41 48
e 41 49
e 41 67
e 41 68
e 41 76
e 41 81
e 41 83
e 41 85
e 41 89
e 41 91
e 41 92
e 41 93
e 42 51
e 42 58
e 42 63
e 42 64
e 42 74
e 42 76
e 42 85
e 42 97
e 43 50
e 43 51
e 43 54
e 43 55
e 43 56
e 43 57
e 43 59
e 43 65
e 43 71
e 43 72
e 43 77
e 43 79
e 43 80
e 43 84
e 43 87
e 43 92
e 43 96
e 44 50
e 44 52
e 44 54
e 44 55
e 44 56
e 44 59
e 44 61
e 44 62
e 44 66
e 44 70
e 44 77
e 44 83
e 44 84
e 44 86
e 44 87
e 44 96
e 44 98
e 45 48
e 45 49
e 45 60
e 45 73
e 45 74
e 45 76
e 45 82
e 45 83
e 45 84
e 45 87
e 45 94
e 45 99
e 46 48
e 46 49
e 46 51
e 46 55
e 46 56
e 46 57
e 46 61
e 46 62
e 46 64
e 46 67
e 46 70
e 46 80
e 46 84
e 46 87
e 46 96
e 47 52
e 47 58
e 47 60
e 47 65
e 47 66
e 47 69
e 47 71
e 47 73
e 47 75
e 47 76
e 47 77
e 47 79
e 47 85
e 47 90
e 47 92
e 47 93
e 47 96
e 48 50
e 48 52
e 48 55
e 48 60
e 48 61
e 48 62
e 48 63
e 48 68
e 48 74
e 48 75
e 48 81
e 48 82
e 48 89
e 48 100
e 49 51
e 49 52
e 49 54
e 49 55
e 49 58
e 49 59
e 49 60
e 49 61
e 49 68
e 49 69
e 49 75
e 49 84
e 49 85
e 49 87
e 49 91
e 49 96
e 49 99
e 50 51
e 50 52
e 50 60
e 50 61
e 50 63
e 50 65
e 50 66
e 50 68
e 50 69
e 50 70
e 50 72
e 50 73
e 50 74
e 50 75
e 50 77
e 50 79
e 50 84
e 50 85
e 50 90
e 50 91
e 50 93
e 50 94
e 50 96
e 51 52
e 51 53
e 51 56
e 51 58
e 51 61
e 51 63
e 51 66
e 51 72
e 51 75
e 51 79
e 51 81
e 51 83
e 51 84
e 51 94
e 51 96
e 51 97
e 51 98
e 51 99
e 51 100
e 52 56
e 52 57
e 52 60
e 52 61
e 52 63
e 52 64
e 52 66
e 52 68
e 52 75
e 52 83
e 52 84
e 52 93
e 52 98
e 53 56
e 53 58
e 53 59
e 53 60
e 53 65
e 53 67
e 53 71
e 53 72
e 53 73
e 53 80
e 53 81
e 53 90
e 53 94
e 53 96
e 53 100
e 54 55
e 54 57
e 54 58
e 54 63
e 54 76
e 54 77
e 54 78
e 54 81
e 54 83
e 54 88
e 54 90
e 54 95
e 54 96
e 55 58
e 55 60
e 55 62
e 55 66
e 55 68
e 55 69
e 55 71
e 55 74
e 55 81
e 55 83
e 55 88
e 55 91
e 55 99
e 56 58
e 56 61
e 56 64
e 56 67
e 56 69
e 56 73
e 56 76
e 56 80
e 56 83
e 56 85
e 56 86
e 56 88
e 56 89
e 56 90
e 56 100
e 57 58
e 57 61
e 57 67
e 57 69
e 57 74
e 57 77
e 57 82
e 57 86
e 57 89
e 57 97
e 57 99
e 57 100
e 58 60
e 58 61
e 58 63
e 58 68
e 58 69
e 58 74
e 58 76
e 58 77
e 58 79
e 58 85
e 58 96
e 58 97
e 58 100
e 59 64
e 59 67
e 59 69
e 59 70
e 59 75
e 59 76
e 59 81
e 59 87
e 59 89
e 59 92
e 59 93
e 59 94
e 59 95
e 59 97
e 59 100
e 60 63
e 60 66
e 60 71
e 60 73
e 60 78
e 60 82
e 60 87
e 60 92
e 60 93
e 60 96
e 60 97
e 61 66
e 61 68
e 61 75
e 61 76
e 61 77
e 61 78
e 61 82
e 61 92
e 61 93
e 61 95
e 61 100
e 62 66
e 62 74
e 62 75
e 62 76
e 62 81
e 62 84
e 62 85
e 62 90
e 62 94
e 62 95
e 63 65
e 63 68
e 63 69
e 63 70
e 63 74
e 63 82
e 63 83
e 63 91
e 63 93
e 63 94
e 63 96
e 63 100
e 64 66
e 64 68
e 64 72
e 64 79
e 64 82
e 64 83
e 64 84
e 64 90
e 64 92
e 64 94
e 64 95
e 64 97
e 64 98
e 65 70
e 65 71
e 65 72
e 65 74
e 65 81
e 65 82
e 65 83
e 65 86
e 65 92
e 65 96
e 65 98
e 65 100
e 66 67
e 66 70
e 66 76
e 66 77
e 66 79
e 66 80
e 66 81
e 66 83
e 66 86
e 66 87
e 66 88
e 66 89
e 66 91
e 66 97
e 66 99
e 67 68
e 67 69
e 67 70
e 67 77
e 67 79
e 67 81
e 67 83
e 67 84
e 67 86
e 67 91
e 67 93
e 67 96
e 68 69
e 68 74
e 68 80
e 68 89
e 68 90
e 68 98
e 68 99
e 69 72
e 69 83
e 69 89
e 69 94
e 69 95
e 69 98
e 69 99
e 70 71
e 70 77
e 70 78
e 70 88
e 71 74
e 71 78
e 71 84
e 71 85
e 71 88
e 71 100
e 72 73
e 72 75
e 72 82
e 72 86
e 72 88
e 72 91
e 72 92
e 72 94
e 72 96
e 73 84
e 73 85
e 73 91
e 73 93
e 73 98
e 73 99
e 73 100
e 74 75
e 74 79
e 74 81
e 74 82
e 74 89
e 74 91
e 74 93
e 74 98
e 75 82
e 75 84
e 75 86
e 75 87
e 75 93
e 75 94
e 75 97
e 75 99
e 76 84
e 76 86
e 76 92
e 76 94
e 76 96
e 76 97
e 77 80
e 77 87
e 77 89
e 77 94
e 77 96
e 77 99
e 77 100
e 78 85
e 78 87
e 78 89
e 78 95
e 79 83
e 79 84
e 79 86
e 79 92
e 79 95
e 79 96
e 79 97
e 79 98
e 79 99
e 80 86
e 80 88
e 80 90
e 80 91
e 80 94
e 80 95
e 80 96
e 80 97
e 81 87
e 81 90
e 81 91
e 81 96
e 82 92
e 82 98
e 83 84
e 83 87
e 83 96
e 83 97
e 83 98
e 84 92
e 84 97
e 84 98
e 85 86
e 85 92
e 85 93
e 85 94
e 85 96
e 85 97
e 86 92
e 86 93
e 86 98
e 87 89
e 87 92
e 87 93
e 87 98
e 88 91
e 88 96
e 89 96
e 89 98
e 89 100
e 90 92
e 90 93
e 90 96
e 90 98
e 90 100
e 91 95
e 91 96
e 92 93
e 92 94
e 92 96
e 93 99
e 94 95
e 94 100
e 95 97
e 96 98
e 96 99
e 97 98
